Si                                      
   1.00000000000000     
    12.150000    0.000000    0.000000
     0.000000   12.150000    0.000000
     0.000000    0.000000   12.150000
   Al
   108
Direct
  0.407161  0.256040  0.505900
  0.938347  0.427315  0.663421
  0.815988  0.696139  0.345886
  0.912635  0.504163  0.243467
  0.113262  0.103711  0.259781
  0.841037  0.221232  0.686580
  0.326926  0.088510  0.354511
  0.510000  0.497972  0.294643
  0.641157  0.929485  0.162876
  0.592720  0.711784  0.252656
  0.547512  0.382619  0.909499
  0.221872  0.227157  0.634946
  0.470587  0.595589  0.851373
  0.984900  0.289032  0.315514
  0.194504  0.273439  0.404939
  0.885149  0.866192  0.489356
  0.766625  0.744471  0.099970
  0.868185  0.603817  0.805946
  0.916047  0.822723  0.722980
  0.198567  0.704038  0.290859
  0.940273  0.385820  0.879855
  0.454901  0.902016  0.301505
  0.738430  0.451630  0.575627
  0.095236  0.541199  0.117669
  0.703768  0.847359  0.632670
  0.359849  0.348475  0.052767
  0.128773  0.806589  0.824287
  0.963845  0.339251  0.091726
  0.776557  0.308311  0.220716
  0.690373  0.142155  0.062665
  0.310049  0.833840  0.671544
  0.341415  0.432771  0.633336
  0.980264  0.723145  0.192180
  0.850388  0.904701  0.253857
  0.339720  0.786526  0.907152
  0.248626  0.920665  0.202752
  0.749896  0.052325  0.541054
  0.591592  0.278860  0.360221
  0.183781  0.015384  0.730767
  0.150718  0.369723  0.963034
  0.144918  0.053520  0.485773
  0.213896  0.966535  0.973138
  0.534615  0.067841  0.446533
  0.682914  0.579933  0.936969
  0.936589  0.077337  0.403423
  0.051117  0.192410  0.784631
  0.969331  0.036458  0.634102
  0.566886  0.325740  0.134272
  0.078822  0.588872  0.899064
  0.529442  0.457624  0.510747
  0.906897  0.120659  0.162290
  0.929280  0.472347  0.454335
  0.141008  0.413674  0.754493
  0.487881  0.854748  0.531103
  0.160082  0.758728  0.057272
  0.234534  0.662197  0.529722
  0.737041  0.795627  0.867325
  0.445967  0.646064  0.617167
  0.620905  0.250223  0.589700
  0.296466  0.131080  0.111809
  0.667704  0.882847  0.398726
  0.094909  0.847368  0.579491
  0.289412  0.571717  0.987289
  0.839851  0.655807  0.577438
  0.266327  0.181394  0.879494
  0.870318  0.172700  0.927748
  0.340836  0.402212  0.843936
  0.121147  0.490586  0.330858
  0.023730  0.678117  0.435677
  0.170148  0.318528  0.177725
  0.393110  0.996704  0.827356
  0.631123  0.661479  0.479208
  0.373993  0.739587  0.148331
  0.355026  0.035980  0.586686
  0.521738  0.813881  0.775516
  0.424728  0.944858  0.055560
  0.137677  0.451433  0.539905
  0.380021  0.299659  0.271287
  0.001188  0.986081  0.883715
  0.572394  0.032418  0.683428
  0.062095  0.894017  0.343141
  0.553359  0.762450  0.006376
  0.472837  0.157282  0.968736
  0.802685  0.265846  0.447325
  0.014493  0.248216  0.541335
  0.747847  0.365274  0.002382
  0.791112  0.003350  0.782466
  0.653482  0.193167  0.829645
  0.055607  0.630385  0.671742
  0.719862  0.477384  0.362024
  0.440496  0.230221  0.738860
  0.273914  0.872568  0.436157
  0.702071  0.521026  0.154870
  0.889650  0.558133  0.028051
  0.324639  0.468023  0.422858
  0.299274  0.520908  0.201961
  0.608729  0.978164  0.920525
  0.515655  0.112080  0.214188
  0.031621  0.937592  0.110689
  0.820777  0.960621  0.020363
  0.494090  0.547281  0.076442
  0.949782  0.771509  0.958198
  0.411681  0.686544  0.382735
  0.727613  0.090966  0.312169
  0.739459  0.407509  0.781889
  0.653307  0.614102  0.715269
  0.084851  0.152858  0.018720
  0.263409  0.621379  0.767157
